g3 2 1 0	# problem inst_sans_ref
 65 227 1 0 55	# vars, constraints, objectives, ranges, eqns
 55 1	# nonlinear constraints, objectives
 0 0	# network constraints: nonlinear, linear
 10 10 10	# nonlinear vars in constraints, objectives, both
 0 0 0 1	# linear network variables; functions; arith, flags
 0 0 0 0 0	# discrete variables: binary, integer, nonlinear (b,c,o)
 984 65	# nonzeros in Jacobian, gradients
 0 0	# max name lengths: constraints, variables
 0 0 0 0 0	# common exprs: b,c,o,c1,o1
b
0 0 1
0 0 1
0 0 1
0 0 1
0 0 1
0 0 1
0 0 1
0 0 1
0 0 1
0 0 1
0 0 1
0 0 1
0 0 1
0 0 1
0 0 1
0 0 1
0 0 1
0 0 1
0 0 1
0 0 1
0 0 1
0 0 1
0 0 1
0 0 1
0 0 1
0 0 1
0 0 1
0 0 1
0 0 1
0 0 1
0 0 1
0 0 1
0 0 1
0 0 1
0 0 1
0 0 1
0 0 1
0 0 1
0 0 1
0 0 1
0 0 1
0 0 1
0 0 1
0 0 1
0 0 1
0 0 1
0 0 1
0 0 1
0 0 1
0 0 1
0 0 1
0 0 1
0 0 1
0 0 1
0 0 1
0 0 1
0 0 1
0 0 1
0 0 1
0 0 1
0 0 1
0 0 1
0 0 1
0 0 1
0 0 1
r
4 0
4 0
4 0
4 0
4 0
4 0
4 0
4 0
4 0
4 0
4 0
4 0
4 0
4 0
4 0
4 0
4 0
4 0
4 0
4 0
4 0
4 0
4 0
4 0
4 0
4 0
4 0
4 0
4 0
4 0
4 0
4 0
4 0
4 0
4 0
4 0
4 0
4 0
4 0
4 0
4 0
4 0
4 0
4 0
4 0
4 0
4 0
4 0
4 0
4 0
4 0
4 0
4 0
4 0
4 0
1 20.42
1 20.25
1 32.04
1 16
1 3.71
1 9.34
1 19.99
1 0
1 0
1 0
1 0
1 0
1 0
1 0
1 0
1 0
1 0
1 0
1 0
1 0
1 0
1 0
1 0
1 0
1 0
1 0
1 0
1 0
1 0
1 0
1 0
1 0
1 0
1 0
1 0
1 0
1 0
1 0
1 0
1 0
1 0
1 0
1 0
1 0
1 0
1 0
1 0
1 0
1 0
1 0
1 0
1 0
1 0
1 0
1 0
1 0
1 0
1 0
1 0
1 0
1 0
1 0
1 0
1 0
1 0
1 0
1 0
1 0
1 0
1 0
1 0
1 0
1 0
1 0
1 0
1 0
1 0
1 0
1 0
1 0
1 0
1 0
1 0
1 0
1 0
1 0
1 0
1 0
1 0
1 0
1 0
1 0
1 0
1 0
1 0
1 0
1 0
1 0
1 0
1 0
1 0
1 0
1 0
1 0
1 0
1 0
1 0
2 -1
2 -1
2 -1
2 -1
2 -1
2 -1
2 -1
2 -1
2 -1
2 -1
2 -1
2 -1
2 -1
2 -1
2 -1
2 -1
2 -1
2 -1
2 -1
2 -1
2 -1
2 -1
2 -1
2 -1
2 -1
2 -1
2 -1
2 -1
2 -1
2 -1
2 -1
2 -1
2 -1
2 -1
2 -1
2 -1
2 -1
2 -1
2 -1
2 -1
2 -1
2 -1
2 -1
2 -1
2 -1
2 -1
2 -1
2 -1
2 -1
2 -1
2 -1
2 -1
2 -1
2 -1
2 -1
2 0
2 0
2 0
2 0
2 0
2 0
2 0
2 0
2 0
2 0
C0
o16
o2
v0
v0
C1
o16
o2
v0
v1
C2
o16
o2
v0
v2
C3
o16
o2
v0
v3
C4
o16
o2
v0
v4
C5
o16
o2
v0
v5
C6
o16
o2
v0
v6
C7
o16
o2
v0
v7
C8
o16
o2
v0
v8
C9
o16
o2
v0
v9
C10
o16
o2
v1
v1
C11
o16
o2
v1
v2
C12
o16
o2
v1
v3
C13
o16
o2
v1
v4
C14
o16
o2
v1
v5
C15
o16
o2
v1
v6
C16
o16
o2
v1
v7
C17
o16
o2
v1
v8
C18
o16
o2
v1
v9
C19
o16
o2
v2
v2
C20
o16
o2
v2
v3
C21
o16
o2
v2
v4
C22
o16
o2
v2
v5
C23
o16
o2
v2
v6
C24
o16
o2
v2
v7
C25
o16
o2
v2
v8
C26
o16
o2
v2
v9
C27
o16
o2
v3
v3
C28
o16
o2
v3
v4
C29
o16
o2
v3
v5
C30
o16
o2
v3
v6
C31
o16
o2
v3
v7
C32
o16
o2
v3
v8
C33
o16
o2
v3
v9
C34
o16
o2
v4
v4
C35
o16
o2
v4
v5
C36
o16
o2
v4
v6
C37
o16
o2
v4
v7
C38
o16
o2
v4
v8
C39
o16
o2
v4
v9
C40
o16
o2
v5
v5
C41
o16
o2
v5
v6
C42
o16
o2
v5
v7
C43
o16
o2
v5
v8
C44
o16
o2
v5
v9
C45
o16
o2
v6
v6
C46
o16
o2
v6
v7
C47
o16
o2
v6
v8
C48
o16
o2
v6
v9
C49
o16
o2
v7
v7
C50
o16
o2
v7
v8
C51
o16
o2
v7
v9
C52
o16
o2
v8
v8
C53
o16
o2
v8
v9
C54
o16
o2
v9
v9
C55
n0
C56
n0
C57
n0
C58
n0
C59
n0
C60
n0
C61
n0
C62
n0
C63
n0
C64
n0
C65
n0
C66
n0
C67
n0
C68
n0
C69
n0
C70
n0
C71
n0
C72
n0
C73
n0
C74
n0
C75
n0
C76
n0
C77
n0
C78
n0
C79
n0
C80
n0
C81
n0
C82
n0
C83
n0
C84
n0
C85
n0
C86
n0
C87
n0
C88
n0
C89
n0
C90
n0
C91
n0
C92
n0
C93
n0
C94
n0
C95
n0
C96
n0
C97
n0
C98
n0
C99
n0
C100
n0
C101
n0
C102
n0
C103
n0
C104
n0
C105
n0
C106
n0
C107
n0
C108
n0
C109
n0
C110
n0
C111
n0
C112
n0
C113
n0
C114
n0
C115
n0
C116
n0
C117
n0
C118
n0
C119
n0
C120
n0
C121
n0
C122
n0
C123
n0
C124
n0
C125
n0
C126
n0
C127
n0
C128
n0
C129
n0
C130
n0
C131
n0
C132
n0
C133
n0
C134
n0
C135
n0
C136
n0
C137
n0
C138
n0
C139
n0
C140
n0
C141
n0
C142
n0
C143
n0
C144
n0
C145
n0
C146
n0
C147
n0
C148
n0
C149
n0
C150
n0
C151
n0
C152
n0
C153
n0
C154
n0
C155
n0
C156
n0
C157
n0
C158
n0
C159
n0
C160
n0
C161
n0
C162
n0
C163
n0
C164
n0
C165
n0
C166
n0
C167
n0
C168
n0
C169
n0
C170
n0
C171
n0
C172
n0
C173
n0
C174
n0
C175
n0
C176
n0
C177
n0
C178
n0
C179
n0
C180
n0
C181
n0
C182
n0
C183
n0
C184
n0
C185
n0
C186
n0
C187
n0
C188
n0
C189
n0
C190
n0
C191
n0
C192
n0
C193
n0
C194
n0
C195
n0
C196
n0
C197
n0
C198
n0
C199
n0
C200
n0
C201
n0
C202
n0
C203
n0
C204
n0
C205
n0
C206
n0
C207
n0
C208
n0
C209
n0
C210
n0
C211
n0
C212
n0
C213
n0
C214
n0
C215
n0
C216
n0
C217
n0
C218
n0
C219
n0
C220
n0
C221
n0
C222
n0
C223
n0
C224
n0
C225
n0
C226
n0
O0 0
o54
100
o2
o2
n0.684913
v0
v0
o2
o2
n0.098052
v0
v1
o2
o2
n0.618709
v0
v2
o2
o2
n-0.803244
v0
v3
o2
o2
n-0.427711
v0
v4
o2
o2
n-0.473716
v0
v5
o2
o2
n0.235147
v0
v6
o2
o2
n0.042206
v0
v7
o2
o2
n0.47707
v0
v8
o2
o2
n-0.264659
v0
v9
o2
o2
n0.098052
v1
v0
o2
o2
n5.632583
v1
v1
o2
o2
n-0.473551
v1
v2
o2
o2
n0.909679
v1
v3
o2
o2
n0.487386
v1
v4
o2
o2
n-0.413651
v1
v5
o2
o2
n0.40411
v1
v6
o2
o2
n-0.227268
v1
v7
o2
o2
n0.673351
v1
v8
o2
o2
n0.524714
v1
v9
o2
o2
n0.618709
v2
v0
o2
o2
n-0.473551
v2
v1
o2
o2
n0.79848
v2
v2
o2
o2
n-0.725514
v2
v3
o2
o2
n-0.519335
v2
v4
o2
o2
n0.256102
v2
v5
o2
o2
n0.487484
v2
v6
o2
o2
n0.09868
v2
v7
o2
o2
n0.321641
v2
v8
o2
o2
n-0.330692
v2
v9
o2
o2
n-0.803244
v3
v0
o2
o2
n0.909679
v3
v1
o2
o2
n-0.725514
v3
v2
o2
o2
n2.486683
v3
v3
o2
o2
n-0.250476
v3
v4
o2
o2
n0.889696
v3
v5
o2
o2
n-0.61919
v3
v6
o2
o2
n-0.739102
v3
v7
o2
o2
n-0.021896
v3
v8
o2
o2
n0.54477
v3
v9
o2
o2
n-0.427711
v4
v0
o2
o2
n0.487386
v4
v1
o2
o2
n-0.519335
v4
v2
o2
o2
n-0.250476
v4
v3
o2
o2
n3.057612
v4
v4
o2
o2
n0.900111
v4
v5
o2
o2
n0.539602
v4
v6
o2
o2
n0.764022
v4
v7
o2
o2
n0.250723
v4
v8
o2
o2
n0.465775
v4
v9
o2
o2
n-0.473716
v5
v0
o2
o2
n-0.413651
v5
v1
o2
o2
n0.256102
v5
v2
o2
o2
n0.889696
v5
v3
o2
o2
n0.900111
v5
v4
o2
o2
n3.494326
v5
v5
o2
o2
n0.815164
v5
v6
o2
o2
n0.835821
v5
v7
o2
o2
n0.141226
v5
v8
o2
o2
n-0.025347
v5
v9
o2
o2
n0.235147
v6
v0
o2
o2
n0.40411
v6
v1
o2
o2
n0.487484
v6
v2
o2
o2
n-0.61919
v6
v3
o2
o2
n0.539602
v6
v4
o2
o2
n0.815164
v6
v5
o2
o2
n1.886782
v6
v6
o2
o2
n-0.308554
v6
v7
o2
o2
n-0.794634
v6
v8
o2
o2
n0.414728
v6
v9
o2
o2
n0.042206
v7
v0
o2
o2
n-0.227268
v7
v1
o2
o2
n0.09868
v7
v2
o2
o2
n-0.739102
v7
v3
o2
o2
n0.764022
v7
v4
o2
o2
n0.835821
v7
v5
o2
o2
n-0.308554
v7
v6
o2
o2
n1.525123
v7
v7
o2
o2
n0.486966
v7
v8
o2
o2
n-0.608578
v7
v9
o2
o2
n0.47707
v8
v0
o2
o2
n0.673351
v8
v1
o2
o2
n0.321641
v8
v2
o2
o2
n-0.021896
v8
v3
o2
o2
n0.250723
v8
v4
o2
o2
n0.141226
v8
v5
o2
o2
n-0.794634
v8
v6
o2
o2
n0.486966
v8
v7
o2
o2
n2.123118
v8
v8
o2
o2
n-0.520854
v8
v9
o2
o2
n-0.264659
v9
v0
o2
o2
n0.524714
v9
v1
o2
o2
n-0.330692
v9
v2
o2
o2
n0.54477
v9
v3
o2
o2
n0.465775
v9
v4
o2
o2
n-0.025347
v9
v5
o2
o2
n0.414728
v9
v6
o2
o2
n-0.608578
v9
v7
o2
o2
n-0.520854
v9
v8
o2
o2
n0.732555
v9
v9
k64
38
76
114
152
190
228
266
304
342
380
391
402
413
424
435
446
457
468
479
490
501
512
523
534
545
556
567
578
589
600
611
622
633
644
655
666
677
688
699
710
721
732
743
754
765
776
786
797
808
819
830
841
852
863
874
885
896
907
918
929
940
951
962
973
J0 2
0 0
10 1
J1 3
0 0
1 0
11 1
J2 3
0 0
2 0
12 1
J3 3
0 0
3 0
13 1
J4 3
0 0
4 0
14 1
J5 3
0 0
5 0
15 1
J6 3
0 0
6 0
16 1
J7 3
0 0
7 0
17 1
J8 3
0 0
8 0
18 1
J9 3
0 0
9 0
19 1
J10 2
1 0
20 1
J11 3
1 0
2 0
21 1
J12 3
1 0
3 0
22 1
J13 3
1 0
4 0
23 1
J14 3
1 0
5 0
24 1
J15 3
1 0
6 0
25 1
J16 3
1 0
7 0
26 1
J17 3
1 0
8 0
27 1
J18 3
1 0
9 0
28 1
J19 2
2 0
29 1
J20 3
2 0
3 0
30 1
J21 3
2 0
4 0
31 1
J22 3
2 0
5 0
32 1
J23 3
2 0
6 0
33 1
J24 3
2 0
7 0
34 1
J25 3
2 0
8 0
35 1
J26 3
2 0
9 0
36 1
J27 2
3 0
37 1
J28 3
3 0
4 0
38 1
J29 3
3 0
5 0
39 1
J30 3
3 0
6 0
40 1
J31 3
3 0
7 0
41 1
J32 3
3 0
8 0
42 1
J33 3
3 0
9 0
43 1
J34 2
4 0
44 1
J35 3
4 0
5 0
45 1
J36 3
4 0
6 0
46 1
J37 3
4 0
7 0
47 1
J38 3
4 0
8 0
48 1
J39 3
4 0
9 0
49 1
J40 2
5 0
50 1
J41 3
5 0
6 0
51 1
J42 3
5 0
7 0
52 1
J43 3
5 0
8 0
53 1
J44 3
5 0
9 0
54 1
J45 2
6 0
55 1
J46 3
6 0
7 0
56 1
J47 3
6 0
8 0
57 1
J48 3
6 0
9 0
58 1
J49 2
7 0
59 1
J50 3
7 0
8 0
60 1
J51 3
7 0
9 0
61 1
J52 2
8 0
62 1
J53 3
8 0
9 0
63 1
J54 2
9 0
64 1
J55 65
0 0.51
1 0.43
2 0.95
3 -0.76
4 -0.53
5 0.77
6 0.36
7 0.35
8 -0.98
9 0.62
10 -0.13
11 -1.84
12 0.9
13 -1.63
14 -1.71
15 0.91
16 1.18
17 0.25
18 -1.32
19 1.09
20 0.25
21 1.57
22 -0.87
23 -0.48
24 -1.55
25 -0.35
26 -0.17
27 1.88
28 -0.9
29 0.73
30 0.51
31 -1.89
32 1.89
33 0.7
34 -0.02
35 0.87
36 1.58
37 -0.92
38 1.7
39 0.39
40 0.28
41 0.16
42 -0.31
43 0.84
44 -0.49
45 -0.65
46 -1.19
47 -1.24
48 -1.17
49 -1.45
50 -0.13
51 2
52 -0.41
53 1.99
54 -0.84
55 -0.47
56 -1.9
57 0.86
58 -0.61
59 -0.39
60 -1.37
61 1.28
62 -0.85
63 1.46
64 -0.38
J56 65
0 0.64
1 -0.58
2 -0.21
3 -0.95
4 -0.81
5 -0.67
6 0.33
7 0.38
8 -0.01
9 -0.33
10 0.38
11 0.82
12 0.82
13 -1.73
14 -0.31
15 0.96
16 0.23
17 -0.17
18 -0.94
19 -1.87
20 -0.39
21 -0.33
22 1.16
23 0.22
24 -1.09
25 -0.51
26 0.69
27 1.91
28 -1.35
29 0.04
30 1.18
31 0.44
32 -0.15
33 0.49
34 -1.04
35 1.5
36 0.62
37 0.84
38 0.47
39 0.98
40 1.23
41 1.13
42 -1.31
43 -1.09
44 0.97
45 -0.9
46 0.19
47 0.77
48 -1.62
49 -1.03
50 -0.04
51 -0.56
52 0.94
53 -0.99
54 -0.98
55 -0.28
56 1.91
57 -0.75
58 1.32
59 -0.69
60 -1.08
61 -0.7
62 -0.29
63 -0.39
64 0.62
J57 65
0 0.16
1 0.96
2 0.96
3 -0.75
4 0.96
5 0.01
6 -0.88
7 0.76
8 -0.59
9 -0.73
10 0.18
11 1.2
12 -0.19
13 1.8
14 -0.27
15 0.76
16 1.45
17 1.68
18 0.48
19 1.23
20 0.68
21 0.51
22 1.45
23 1.43
24 -0.25
25 0.76
26 -1.62
27 -1.05
28 1.44
29 -0.07
30 -1.79
31 -0.46
32 0.7
33 1.45
34 0.74
35 1.32
36 1.87
37 -0.68
38 -1.11
39 1.59
40 -0.04
41 -0.23
42 1.86
43 0.59
44 0.98
45 -0.87
46 -1.71
47 -1.15
48 0.51
49 0.87
50 0.35
51 1.92
52 -1.92
53 0.45
54 -1.15
55 -0.42
56 0.06
57 -0.1
58 0.79
59 0.4
60 -1.65
61 -0.37
62 -0.47
63 -1.03
64 -0.32
J58 65
0 0.2
1 0.3
2 -0.59
3 -0.11
4 0.62
5 0.62
6 0.49
7 -0.57
8 0.7
9 0.09
10 -0.66
11 1.01
12 0.62
13 -0.57
14 1.49
15 0.25
16 0.97
17 -1.71
18 -0.43
19 1.36
20 -0.9
21 1.78
22 0.37
23 1.84
24 1.46
25 1.69
26 0.14
27 0.66
28 -1.05
29 -0.03
30 -0.43
31 1.29
32 1.68
33 1.11
34 -0.21
35 -0.25
36 0.55
37 0.91
38 -0.54
39 -0.6
40 -1.63
41 -1.81
42 -0.72
43 -0.78
44 -0.41
45 1.11
46 -1.35
47 0.32
48 0.61
49 1.65
50 0.77
51 -1.75
52 1.72
53 -1.07
54 1.74
55 0.97
56 1.85
57 0.7
58 0.9
59 0.75
60 -1.69
61 -1.19
62 -0.6
63 -0.72
64 -0.09
J59 65
0 -0.97
1 0.96
2 0.48
3 0.24
4 0.62
5 -0.96
6 0.36
7 0.34
8 -0.59
9 -0.19
10 -0.27
11 -0.5
12 -0.17
13 -0.2
14 0.16
15 1.43
16 0.45
17 0.37
18 1.4
19 1.31
20 -0.64
21 -0.58
22 -1.73
23 1.75
24 0.99
25 -0.7
26 0.9
27 1.33
28 0.02
29 -0.6
30 0.85
31 -1.85
32 1
33 -1.47
34 -0.69
35 0.66
36 -1.5
37 -0.67
38 1.02
39 -1.87
40 1.36
41 -0.2
42 1.77
43 -0.56
44 -0.3
45 1.62
46 -0.91
47 0.65
48 1.31
49 0.86
50 -0.35
51 -1.6
52 0.18
53 -1.46
54 1.08
55 -0.98
56 -1.78
57 -1.45
58 1.5
59 -0.24
60 0.55
61 0.14
62 0.94
63 1.58
64 -0.12
J60 64
0 -0.38
1 0.11
2 0.95
3 0.07
4 -0.59
5 -0.02
6 0.84
7 0.42
8 0.29
9 0.64
10 0.59
11 -1.37
12 -1.91
13 -1.69
14 0.46
15 -1.6
16 -0.6
17 -1.56
18 -0.62
19 1.69
20 0.84
21 0.39
22 0.45
23 0.94
24 1.11
25 0.51
26 -0.11
27 -0.64
28 -0.05
29 -0.47
30 -1.03
31 1.82
32 1.06
33 0.56
34 1.44
35 -1.4
36 1.52
37 0.34
38 1.38
39 -1.38
40 -1.34
41 -0.28
42 1.63
43 -0.66
44 0.76
45 -0.38
47 -1.83
48 0.13
49 0.17
50 0.76
51 -0.7
52 -1.05
53 -1.72
54 1.45
55 -0.09
56 -0.14
57 -0.11
58 -1.29
59 -0.56
60 -0.53
61 -1.91
62 -0.35
63 0.55
64 0.4
J61 65
0 -0.59
1 0.54
2 0.94
3 -0.38
4 0.14
5 0.45
6 -0.22
7 0.75
8 -0.93
9 0.69
10 -0.27
11 1.76
12 -1.1
13 1.84
14 -0.87
15 -1.44
16 -1.87
17 0.59
18 0.05
19 -0.93
20 0.93
21 -0.65
22 -1.79
23 0.75
24 -0.31
25 -0.84
26 1.1
27 1.85
28 1.99
29 -0.41
30 1.67
31 -1.97
32 -0.61
33 1.07
34 1.23
35 1.13
36 -1.03
37 0.71
38 -1.16
39 -1.32
40 -0.09
41 -0.65
42 -0.66
43 0.12
44 0.2
45 -0.09
46 -1.54
47 0.27
48 0.26
49 1.15
50 -0.12
51 -0.17
52 -0.6
53 1.35
54 1.94
55 0.18
56 0.72
57 -0.66
58 -1.48
59 0.42
60 1.91
61 0.38
62 -0.78
63 0.61
64 0.41
J62 2
0 -1
10 1
J63 2
0 -1
11 1
J64 2
0 -1
12 1
J65 2
0 -1
13 1
J66 2
0 -1
14 1
J67 2
0 -1
15 1
J68 2
0 -1
16 1
J69 2
0 -1
17 1
J70 2
0 -1
18 1
J71 2
0 -1
19 1
J72 2
1 -1
20 1
J73 2
1 -1
21 1
J74 2
1 -1
22 1
J75 2
1 -1
23 1
J76 2
1 -1
24 1
J77 2
1 -1
25 1
J78 2
1 -1
26 1
J79 2
1 -1
27 1
J80 2
1 -1
28 1
J81 2
2 -1
29 1
J82 2
2 -1
30 1
J83 2
2 -1
31 1
J84 2
2 -1
32 1
J85 2
2 -1
33 1
J86 2
2 -1
34 1
J87 2
2 -1
35 1
J88 2
2 -1
36 1
J89 2
3 -1
37 1
J90 2
3 -1
38 1
J91 2
3 -1
39 1
J92 2
3 -1
40 1
J93 2
3 -1
41 1
J94 2
3 -1
42 1
J95 2
3 -1
43 1
J96 2
4 -1
44 1
J97 2
4 -1
45 1
J98 2
4 -1
46 1
J99 2
4 -1
47 1
J100 2
4 -1
48 1
J101 2
4 -1
49 1
J102 2
5 -1
50 1
J103 2
5 -1
51 1
J104 2
5 -1
52 1
J105 2
5 -1
53 1
J106 2
5 -1
54 1
J107 2
6 -1
55 1
J108 2
6 -1
56 1
J109 2
6 -1
57 1
J110 2
6 -1
58 1
J111 2
7 -1
59 1
J112 2
7 -1
60 1
J113 2
7 -1
61 1
J114 2
8 -1
62 1
J115 2
8 -1
63 1
J116 2
9 -1
64 1
J117 2
1 -1
11 1
J118 2
2 -1
12 1
J119 2
3 -1
13 1
J120 2
4 -1
14 1
J121 2
5 -1
15 1
J122 2
6 -1
16 1
J123 2
7 -1
17 1
J124 2
8 -1
18 1
J125 2
9 -1
19 1
J126 2
2 -1
21 1
J127 2
3 -1
22 1
J128 2
4 -1
23 1
J129 2
5 -1
24 1
J130 2
6 -1
25 1
J131 2
7 -1
26 1
J132 2
8 -1
27 1
J133 2
9 -1
28 1
J134 2
3 -1
30 1
J135 2
4 -1
31 1
J136 2
5 -1
32 1
J137 2
6 -1
33 1
J138 2
7 -1
34 1
J139 2
8 -1
35 1
J140 2
9 -1
36 1
J141 2
4 -1
38 1
J142 2
5 -1
39 1
J143 2
6 -1
40 1
J144 2
7 -1
41 1
J145 2
8 -1
42 1
J146 2
9 -1
43 1
J147 2
5 -1
45 1
J148 2
6 -1
46 1
J149 2
7 -1
47 1
J150 2
8 -1
48 1
J151 2
9 -1
49 1
J152 2
6 -1
51 1
J153 2
7 -1
52 1
J154 2
8 -1
53 1
J155 2
9 -1
54 1
J156 2
7 -1
56 1
J157 2
8 -1
57 1
J158 2
9 -1
58 1
J159 2
8 -1
60 1
J160 2
9 -1
61 1
J161 2
9 -1
63 1
J162 2
0 -2
10 1
J163 3
0 -1
1 -1
11 1
J164 3
0 -1
2 -1
12 1
J165 3
0 -1
3 -1
13 1
J166 3
0 -1
4 -1
14 1
J167 3
0 -1
5 -1
15 1
J168 3
0 -1
6 -1
16 1
J169 3
0 -1
7 -1
17 1
J170 3
0 -1
8 -1
18 1
J171 3
0 -1
9 -1
19 1
J172 2
1 -2
20 1
J173 3
1 -1
2 -1
21 1
J174 3
1 -1
3 -1
22 1
J175 3
1 -1
4 -1
23 1
J176 3
1 -1
5 -1
24 1
J177 3
1 -1
6 -1
25 1
J178 3
1 -1
7 -1
26 1
J179 3
1 -1
8 -1
27 1
J180 3
1 -1
9 -1
28 1
J181 2
2 -2
29 1
J182 3
2 -1
3 -1
30 1
J183 3
2 -1
4 -1
31 1
J184 3
2 -1
5 -1
32 1
J185 3
2 -1
6 -1
33 1
J186 3
2 -1
7 -1
34 1
J187 3
2 -1
8 -1
35 1
J188 3
2 -1
9 -1
36 1
J189 2
3 -2
37 1
J190 3
3 -1
4 -1
38 1
J191 3
3 -1
5 -1
39 1
J192 3
3 -1
6 -1
40 1
J193 3
3 -1
7 -1
41 1
J194 3
3 -1
8 -1
42 1
J195 3
3 -1
9 -1
43 1
J196 2
4 -2
44 1
J197 3
4 -1
5 -1
45 1
J198 3
4 -1
6 -1
46 1
J199 3
4 -1
7 -1
47 1
J200 3
4 -1
8 -1
48 1
J201 3
4 -1
9 -1
49 1
J202 2
5 -2
50 1
J203 3
5 -1
6 -1
51 1
J204 3
5 -1
7 -1
52 1
J205 3
5 -1
8 -1
53 1
J206 3
5 -1
9 -1
54 1
J207 2
6 -2
55 1
J208 3
6 -1
7 -1
56 1
J209 3
6 -1
8 -1
57 1
J210 3
6 -1
9 -1
58 1
J211 2
7 -2
59 1
J212 3
7 -1
8 -1
60 1
J213 3
7 -1
9 -1
61 1
J214 2
8 -2
62 1
J215 3
8 -1
9 -1
63 1
J216 2
9 -2
64 1
J217 2
0 -1
10 1
J218 2
1 -1
20 1
J219 2
2 -1
29 1
J220 2
3 -1
37 1
J221 2
4 -1
44 1
J222 2
5 -1
50 1
J223 2
6 -1
55 1
J224 2
7 -1
59 1
J225 2
8 -1
62 1
J226 2
9 -1
64 1
G0 65
0 -0.87
1 0.93
2 0.31
3 0.41
4 0.69
5 0.35
6 0.46
7 0.54
8 -0.42
9 0.63
10 -0.794913
11 0.183896
12 0.042581
13 0.226487
14 0.175422
15 -0.972567
16 -0.140293
17 0.495588
18 -0.06414
19 0.399318
20 -5.402583
21 -0.172897
22 0.080642
23 -0.054773
24 0.007302
25 0.191781
26 0.114535
27 0.043298
28 0.100572
29 -0.37848
30 -0.218973
31 -0.161331
32 0.917797
33 0.165032
34 -0.47736
35 0.046717
36 -0.368616
37 -2.466683
38 -0.009047
39 0.040608
40 -0.08162
41 -0.301796
42 -0.036208
43 -0.13954
44 -3.197612
45 -0.000221
46 0.180795
47 0.141956
48 0.018554
49 0.148451
50 -3.874326
51 -0.000328
52 0.218358
53 0.017547
54 0.050694
55 -1.996782
56 0.027109
57 -0.170732
58 -0.019456
59 -1.285123
60 -0.243932
61 -0.042843
62 -3.093118
63 -0.208291
64 -1.292555
